1381
1   1   125  59   0 2 10 18 34 26 3 13 5 0
1   2   196  54   0 11 19 27 35 37 29 21 16 8 7 0
1   3   0    0    0 0
1   4   170  54   0 4 12 20 28 36 33 25 17 9 1 0
1   5   200  49   0 15 23 31 39 57 65 73 38 30 22 14 6 0
2   1   150  59   0 41 49 43 77 69 61 53 45 0
2   2   0    0    0 0
2   3   170  54   0 44 52 60 68 76 78 70 62 54 46 0
2   4   170  54   0 47 55 63 71 79 80 72 64 56 48 0
2   5   200  49   0 51 59 67 75 40 32 24 74 66 58 50 42 0